\* planning_problem_of_kits *\
Minimize
Costo_Total: 5973600045.6 y_Candelaria + 5722089278.4 y_El_Cerrito
 + 9945159998.4 y_Florida + 7648468027.2 y_Palmira + 452997468 y_Pradera
Subject To
_C1: y_Candelaria + y_El_Cerrito + y_Florida + y_Palmira + y_Pradera = 1
_dummy: __dummy = 0
_C2: __dummy <= 0
Bounds
 __dummy = 0
Binaries
y_Candelaria
y_El_Cerrito
y_Florida
y_Palmira
y_Pradera
End
